1000 1000 20
310 426 6
673 468 2
426 463 4
325 498 6
555 540 1
292 455 6
343 341 4
362 491 4
305 688 3
459 607 2
426 310 6
468 673 2
463 426 4
498 325 6
540 555 1
455 292 6
341 343 4
491 362 4
688 305 3
607 459 2
